575, 0, 0, 32, 2
576, 0, 1, 85, 0
577, 0, 2, 59, 3
578, 0, 3, 92, 1
579, 1, 0, 39, 3
580, 1, 1, 31, 0
581, 1, 2, 34, 2
582, 1, 3, 59, 1
583, 2, 0, 99, 1
584, 2, 1, 70, 2
585, 2, 2, 81, 3
586, 2, 3, 66, 0
587, 3, 0, 79, 3
588, 3, 1, 57, 0
589, 3, 2, 52, 1
590, 3, 3, 42, 2
